problems/csplib-prob015/SchursLemma-models/noch/O2/lingeling/model_1_3-5-11-solution000001.eprime-solution
language ESSENCE' 1.0

letting boxes_PartitionAsSet_ExplicitR5_ExplicitVarSizeWithMarker_Marker be [1, 1, 3, 3, 3; int(1..5)]
letting boxes_PartitionAsSet_ExplicitR5_ExplicitVarSizeWithMarker_Values be
        [[8, 1, 1, 1, 1, 1, 1, 1, 1, 1, 1; int(1..11)], [9, 1, 1, 1, 1, 1, 1, 1, 1, 1, 1; int(1..11)],
         [1, 2, 4, 1, 1, 1, 1, 1, 1, 1, 1; int(1..11)], [3, 6, 11, 1, 1, 1, 1, 1, 1, 1, 1; int(1..11)],
         [5, 7, 10, 1, 1, 1, 1, 1, 1, 1, 1; int(1..11)]; int(1..5)]
